Temps avant resolution glpk : 22.921000
Writing problem data to `Does_androids_dream_of_electric_sheep.lp'...
185861 lines were written
GLPK Simplex Optimizer, v4.45
19 rows, 42299 columns, 240947 non-zeros
      0: obj =   0.000000000e+00  infeas =  1.900e+01 (19)
*    39: obj =   4.600073333e+03  infeas =  0.000e+00 (0)
*    93: obj =   3.423000000e+03  infeas =  2.140e-16 (0)
OPTIMAL SOLUTION FOUND
GLPK Integer Optimizer, v4.45
19 rows, 42299 columns, 240947 non-zeros
42299 integer variables, all of which are binary
Integer optimization begins...
+    93: mip =     not found yet >=              -inf        (1; 0)
+   124: mip =     not found yet >=   3.427000000e+03        (6; 0)
+   138: mip =     not found yet >=   3.427000000e+03        (13; 0)
+   153: mip =     not found yet >=   3.427000000e+03        (20; 0)
+   160: >>>>>   3.838000000e+03 >=   3.427000000e+03  10.7% (22; 0)
+   182: mip =   3.838000000e+03 >=   3.431000000e+03  10.6% (19; 11)
+   213: mip =   3.838000000e+03 >=   3.431000000e+03  10.6% (23; 11)
+   229: mip =   3.838000000e+03 >=   3.431000000e+03  10.6% (27; 12)
+   290: mip =   3.838000000e+03 >=   3.438000000e+03  10.4% (32; 12)
+   312: mip =   3.838000000e+03 >=   3.438000000e+03  10.4% (37; 12)
+   353: mip =   3.838000000e+03 >=   3.444000000e+03  10.3% (38; 14)
+   380: mip =   3.838000000e+03 >=   3.444000000e+03  10.3% (41; 15)
Time used: 60.6 secs.  Memory used: 23.4 Mb.
+   410: mip =   3.838000000e+03 >=   3.444000000e+03  10.3% (45; 15)
+   446: mip =   3.838000000e+03 >=   3.444000000e+03  10.3% (49; 15)
+   461: mip =   3.838000000e+03 >=   3.444000000e+03  10.3% (53; 15)
+   505: mip =   3.838000000e+03 >=   3.444000000e+03  10.3% (57; 15)
+   523: mip =   3.838000000e+03 >=   3.444000000e+03  10.3% (62; 15)
+   535: mip =   3.838000000e+03 >=   3.444000000e+03  10.3% (66; 15)
+   552: mip =   3.838000000e+03 >=   3.444000000e+03  10.3% (69; 15)
+   557: >>>>>   3.819000000e+03 >=   3.444000000e+03   9.8% (70; 15)
+   612: mip =   3.819000000e+03 >=   3.451000000e+03   9.6% (65; 30)
+   627: mip =   3.819000000e+03 >=   3.451000000e+03   9.6% (70; 30)
+   642: mip =   3.819000000e+03 >=   3.451000000e+03   9.6% (77; 30)
+   645: >>>>>   3.766000000e+03 >=   3.451000000e+03   8.4% (77; 30)
+   667: mip =   3.766000000e+03 >=   3.455000000e+03   8.3% (56; 82)
Time used: 120.7 secs.  Memory used: 26.8 Mb.
+   673: >>>>>   3.732000000e+03 >=   3.455000000e+03   7.4% (57; 82)
+   722: >>>>>   3.711000000e+03 >=   3.467000000e+03   6.6% (35; 133)
+   740: mip =   3.711000000e+03 >=   3.474000000e+03   6.4% (38; 134)
+   750: mip =   3.711000000e+03 >=   3.474000000e+03   6.4% (43; 134)
+   763: mip =   3.711000000e+03 >=   3.474000000e+03   6.4% (48; 134)
+   785: mip =   3.711000000e+03 >=   3.485000000e+03   6.1% (47; 137)
+   791: mip =   3.711000000e+03 >=   3.487000000e+03   6.0% (52; 137)
+   803: mip =   3.711000000e+03 >=   3.490000000e+03   6.0% (52; 140)
+   823: mip =   3.711000000e+03 >=   3.495000000e+03   5.8% (47; 146)
+   844: mip =   3.711000000e+03 >=   3.502000000e+03   5.6% (44; 150)
+   869: mip =   3.711000000e+03 >=   3.505000000e+03   5.6% (42; 154)
Time used: 181.2 secs.  Memory used: 26.8 Mb.
+   881: mip =   3.711000000e+03 >=   3.515000000e+03   5.3% (44; 156)
+   896: mip =   3.711000000e+03 >=   3.515000000e+03   5.3% (50; 156)
+   918: mip =   3.711000000e+03 >=   3.515000000e+03   5.3% (56; 156)
+   942: mip =   3.711000000e+03 >=   3.515000000e+03   5.3% (58; 158)
+   966: mip =   3.711000000e+03 >=   3.515000000e+03   5.3% (62; 158)
+   988: mip =   3.711000000e+03 >=   3.519000000e+03   5.2% (64; 160)
+  1013: mip =   3.711000000e+03 >=   3.525000000e+03   5.0% (63; 164)
+  1030: mip =   3.711000000e+03 >=   3.528000000e+03   4.9% (64; 166)
+  1062: mip =   3.711000000e+03 >=   3.528000000e+03   4.9% (63; 169)
+  1071: mip =   3.711000000e+03 >=   3.528000000e+03   4.9% (62; 172)
+  1099: mip =   3.711000000e+03 >=   3.532000000e+03   4.8% (62; 174)
+  1116: mip =   3.711000000e+03 >=   3.532000000e+03   4.8% (60; 177)
Time used: 242.5 secs.  Memory used: 27.4 Mb.
+  1145: mip =   3.711000000e+03 >=   3.532000000e+03   4.8% (65; 177)
+  1153: mip =   3.711000000e+03 >=   3.532000000e+03   4.8% (70; 177)
+  1167: mip =   3.711000000e+03 >=   3.532000000e+03   4.8% (75; 177)
+  1192: mip =   3.711000000e+03 >=   3.532000000e+03   4.8% (80; 177)
+  1208: mip =   3.711000000e+03 >=   3.532000000e+03   4.8% (85; 177)
+  1230: mip =   3.711000000e+03 >=   3.536000000e+03   4.7% (86; 179)
+  1244: mip =   3.711000000e+03 >=   3.536000000e+03   4.7% (84; 183)
+  1264: mip =   3.711000000e+03 >=   3.536000000e+03   4.7% (89; 183)
+  1288: mip =   3.711000000e+03 >=   3.543000000e+03   4.5% (85; 187)
+  1308: mip =   3.711000000e+03 >=   3.545000000e+03   4.5% (88; 188)
+  1324: mip =   3.711000000e+03 >=   3.545000000e+03   4.5% (92; 188)
Time used: 303.1 secs.  Memory used: 28.0 Mb.
+  1341: mip =   3.711000000e+03 >=   3.545000000e+03   4.5% (96; 188)
+  1357: mip =   3.711000000e+03 >=   3.545000000e+03   4.5% (99; 189)
+  1366: mip =   3.711000000e+03 >=   3.545000000e+03   4.5% (104; 189)
+  1378: mip =   3.711000000e+03 >=   3.545000000e+03   4.5% (110; 189)
+  1416: mip =   3.711000000e+03 >=   3.545000000e+03   4.5% (111; 191)
+  1432: mip =   3.711000000e+03 >=   3.545000000e+03   4.5% (116; 191)
+  1443: mip =   3.711000000e+03 >=   3.549000000e+03   4.4% (111; 198)
+  1459: mip =   3.711000000e+03 >=   3.549000000e+03   4.4% (115; 199)
+  1487: mip =   3.711000000e+03 >=   3.549000000e+03   4.4% (118; 200)
+  1500: mip =   3.711000000e+03 >=   3.551000000e+03   4.3% (118; 203)
+  1534: mip =   3.711000000e+03 >=   3.551000000e+03   4.3% (121; 204)
Time used: 363.5 secs.  Memory used: 28.0 Mb.
+  1569: mip =   3.711000000e+03 >=   3.551000000e+03   4.3% (126; 204)
+  1592: mip =   3.711000000e+03 >=   3.555000000e+03   4.2% (129; 205)
+  1619: mip =   3.711000000e+03 >=   3.555000000e+03   4.2% (131; 207)
+  1646: mip =   3.711000000e+03 >=   3.555000000e+03   4.2% (136; 207)
+  1669: mip =   3.711000000e+03 >=   3.558000000e+03   4.1% (130; 215)
+  1693: mip =   3.711000000e+03 >=   3.558000000e+03   4.1% (135; 215)
+  1717: mip =   3.711000000e+03 >=   3.558000000e+03   4.1% (140; 215)
+  1724: mip =   3.711000000e+03 >=   3.558000000e+03   4.1% (143; 216)
+  1741: mip =   3.711000000e+03 >=   3.558000000e+03   4.1% (136; 224)
+  1784: mip =   3.711000000e+03 >=   3.558000000e+03   4.1% (137; 226)
+  1790: mip =   3.711000000e+03 >=   3.559000000e+03   4.1% (140; 227)
Time used: 423.8 secs.  Memory used: 28.0 Mb.
+  1794: mip =   3.711000000e+03 >=   3.559000000e+03   4.1% (144; 227)
+  1826: mip =   3.711000000e+03 >=   3.562000000e+03   4.0% (148; 227)
+  1851: mip =   3.711000000e+03 >=   3.562000000e+03   4.0% (153; 227)
+  1867: mip =   3.711000000e+03 >=   3.562000000e+03   4.0% (148; 235)
+  1887: mip =   3.711000000e+03 >=   3.562000000e+03   4.0% (153; 235)
+  1907: mip =   3.711000000e+03 >=   3.562000000e+03   4.0% (155; 237)
+  1938: mip =   3.711000000e+03 >=   3.562000000e+03   4.0% (159; 237)
+  1961: mip =   3.711000000e+03 >=   3.562000000e+03   4.0% (163; 237)
+  1989: mip =   3.711000000e+03 >=   3.564000000e+03   4.0% (164; 238)
+  2000: mip =   3.711000000e+03 >=   3.564000000e+03   4.0% (169; 238)
Time used: 484.3 secs.  Memory used: 28.2 Mb.
+  2019: mip =   3.711000000e+03 >=   3.564000000e+03   4.0% (174; 238)
+  2027: mip =   3.711000000e+03 >=   3.564000000e+03   4.0% (180; 238)
+  2060: mip =   3.711000000e+03 >=   3.564000000e+03   4.0% (177; 243)
+  2076: mip =   3.711000000e+03 >=   3.564000000e+03   4.0% (182; 243)
+  2085: mip =   3.711000000e+03 >=   3.564000000e+03   4.0% (187; 243)
+  2096: mip =   3.711000000e+03 >=   3.567000000e+03   3.9% (190; 244)
+  2104: mip =   3.711000000e+03 >=   3.568000000e+03   3.9% (194; 244)
+  2116: mip =   3.711000000e+03 >=   3.568000000e+03   3.9% (193; 247)
+  2135: mip =   3.711000000e+03 >=   3.569000000e+03   3.8% (192; 251)
+  2157: mip =   3.711000000e+03 >=   3.569000000e+03   3.8% (197; 251)
+  2175: mip =   3.711000000e+03 >=   3.571000000e+03   3.8% (197; 254)
Time used: 545.2 secs.  Memory used: 28.4 Mb.
+  2189: mip =   3.711000000e+03 >=   3.571000000e+03   3.8% (201; 254)
+  2203: mip =   3.711000000e+03 >=   3.571000000e+03   3.8% (205; 254)
+  2215: mip =   3.711000000e+03 >=   3.571000000e+03   3.8% (209; 254)
+  2229: mip =   3.711000000e+03 >=   3.571000000e+03   3.8% (213; 254)
+  2251: mip =   3.711000000e+03 >=   3.571000000e+03   3.8% (218; 254)
+  2302: mip =   3.711000000e+03 >=   3.571000000e+03   3.8% (223; 254)
+  2325: mip =   3.711000000e+03 >=   3.571000000e+03   3.8% (224; 257)
+  2338: mip =   3.711000000e+03 >=   3.571000000e+03   3.8% (229; 257)
+  2352: mip =   3.711000000e+03 >=   3.571000000e+03   3.8% (234; 257)
+  2370: mip =   3.711000000e+03 >=   3.571000000e+03   3.8% (233; 261)
+  2411: mip =   3.711000000e+03 >=   3.571000000e+03   3.8% (237; 261)
Time used: 605.2 secs.  Memory used: 28.5 Mb.
+  2424: mip =   3.711000000e+03 >=   3.571000000e+03   3.8% (242; 261)
+  2451: mip =   3.711000000e+03 >=   3.571000000e+03   3.8% (244; 262)
+  2489: mip =   3.711000000e+03 >=   3.575000000e+03   3.7% (244; 265)
+  2507: mip =   3.711000000e+03 >=   3.575000000e+03   3.7% (249; 265)
+  2522: mip =   3.711000000e+03 >=   3.575000000e+03   3.7% (254; 265)
+  2542: mip =   3.711000000e+03 >=   3.575000000e+03   3.7% (260; 265)
+  2565: mip =   3.711000000e+03 >=   3.575000000e+03   3.7% (265; 265)
+  2582: mip =   3.711000000e+03 >=   3.575000000e+03   3.7% (271; 265)
+  2594: mip =   3.711000000e+03 >=   3.575000000e+03   3.7% (276; 265)
+  2606: mip =   3.711000000e+03 >=   3.575000000e+03   3.7% (282; 265)
+  2635: mip =   3.711000000e+03 >=   3.575000000e+03   3.7% (287; 265)
Time used: 665.5 secs.  Memory used: 28.6 Mb.
+  2654: mip =   3.711000000e+03 >=   3.575000000e+03   3.7% (292; 265)
+  2662: mip =   3.711000000e+03 >=   3.576000000e+03   3.6% (292; 269)
+  2679: mip =   3.711000000e+03 >=   3.576000000e+03   3.6% (297; 269)
+  2698: mip =   3.711000000e+03 >=   3.576000000e+03   3.6% (302; 269)
+  2738: mip =   3.711000000e+03 >=   3.576000000e+03   3.6% (304; 271)
+  2755: mip =   3.711000000e+03 >=   3.576000000e+03   3.6% (309; 271)
+  2765: mip =   3.711000000e+03 >=   3.576000000e+03   3.6% (314; 271)
+  2777: mip =   3.711000000e+03 >=   3.576000000e+03   3.6% (319; 271)
+  2791: mip =   3.711000000e+03 >=   3.576000000e+03   3.6% (323; 271)
+  2805: mip =   3.711000000e+03 >=   3.576000000e+03   3.6% (327; 271)
+  2820: mip =   3.711000000e+03 >=   3.576000000e+03   3.6% (333; 271)
Time used: 725.7 secs.  Memory used: 28.6 Mb.
+  2880: mip =   3.711000000e+03 >=   3.576000000e+03   3.6% (336; 272)
+  2912: mip =   3.711000000e+03 >=   3.576000000e+03   3.6% (338; 274)
+  2930: mip =   3.711000000e+03 >=   3.576000000e+03   3.6% (343; 274)
+  2960: mip =   3.711000000e+03 >=   3.579000000e+03   3.6% (346; 275)
+  2979: mip =   3.711000000e+03 >=   3.579000000e+03   3.6% (351; 275)
+  2991: mip =   3.711000000e+03 >=   3.579000000e+03   3.6% (354; 275)
+  3010: mip =   3.711000000e+03 >=   3.579000000e+03   3.6% (349; 282)
+  3023: mip =   3.711000000e+03 >=   3.579000000e+03   3.6% (352; 283)
+  3042: mip =   3.711000000e+03 >=   3.579000000e+03   3.6% (347; 289)
+  3083: mip =   3.711000000e+03 >=   3.583000000e+03   3.4% (348; 291)
Time used: 785.8 secs.  Memory used: 29.0 Mb.
+  3113: mip =   3.711000000e+03 >=   3.583000000e+03   3.4% (353; 291)
+  3122: mip =   3.711000000e+03 >=   3.583000000e+03   3.4% (356; 292)
+  3151: mip =   3.711000000e+03 >=   3.583000000e+03   3.4% (353; 299)
+  3166: mip =   3.711000000e+03 >=   3.583000000e+03   3.4% (358; 299)
+  3178: mip =   3.711000000e+03 >=   3.585000000e+03   3.4% (348; 309)
+  3240: mip =   3.711000000e+03 >=   3.585000000e+03   3.4% (347; 312)
+  3266: mip =   3.711000000e+03 >=   3.585000000e+03   3.4% (347; 315)
+  3297: mip =   3.711000000e+03 >=   3.588000000e+03   3.3% (345; 319)
+  3329: mip =   3.711000000e+03 >=   3.588000000e+03   3.3% (336; 329)
+  3336: mip =   3.711000000e+03 >=   3.588000000e+03   3.3% (333; 332)
+  3344: mip =   3.711000000e+03 >=   3.592000000e+03   3.2% (321; 344)
Time used: 847.0 secs.  Memory used: 29.2 Mb.
+  3361: mip =   3.711000000e+03 >=   3.592000000e+03   3.2% (323; 346)
+  3367: mip =   3.711000000e+03 >=   3.592000000e+03   3.2% (328; 346)
+  3383: mip =   3.711000000e+03 >=   3.592000000e+03   3.2% (333; 346)
+  3395: mip =   3.711000000e+03 >=   3.592000000e+03   3.2% (338; 346)
+  3401: mip =   3.711000000e+03 >=   3.593000000e+03   3.2% (335; 352)
+  3421: mip =   3.711000000e+03 >=   3.593000000e+03   3.2% (340; 352)
+  3429: mip =   3.711000000e+03 >=   3.593000000e+03   3.2% (345; 352)
+  3448: mip =   3.711000000e+03 >=   3.598000000e+03   3.0% (339; 359)
+  3469: mip =   3.711000000e+03 >=   3.598000000e+03   3.0% (342; 361)
+  3474: mip =   3.711000000e+03 >=   3.598000000e+03   3.0% (347; 361)
+  3498: mip =   3.711000000e+03 >=   3.598000000e+03   3.0% (344; 367)
+  3500: >>>>>   3.706000000e+03 >=   3.598000000e+03   2.9% (344; 367)
Time used: 907.8 secs.  Memory used: 29.2 Mb.
+  3502: mip =   3.706000000e+03 >=   3.598000000e+03   2.9% (334; 381)
+  3506: mip =   3.706000000e+03 >=   3.598000000e+03   2.9% (338; 381)
+  3510: mip =   3.706000000e+03 >=   3.598000000e+03   2.9% (342; 381)
+  3514: mip =   3.706000000e+03 >=   3.598000000e+03   2.9% (346; 381)
+  3520: mip =   3.706000000e+03 >=   3.598000000e+03   2.9% (350; 381)
+  3524: mip =   3.706000000e+03 >=   3.598000000e+03   2.9% (354; 381)
+  3528: mip =   3.706000000e+03 >=   3.598000000e+03   2.9% (357; 381)
+  3532: mip =   3.706000000e+03 >=   3.598000000e+03   2.9% (361; 381)
+  3537: mip =   3.706000000e+03 >=   3.598000000e+03   2.9% (364; 381)
+  3542: mip =   3.706000000e+03 >=   3.598000000e+03   2.9% (366; 381)
+  3563: mip =   3.706000000e+03 >=   3.598000000e+03   2.9% (365; 385)
+  3571: mip =   3.706000000e+03 >=   3.598000000e+03   2.9% (366; 387)
Time used: 968.5 secs.  Memory used: 29.2 Mb.
+  3606: mip =   3.706000000e+03 >=   3.598000000e+03   2.9% (365; 390)
+  3636: mip =   3.706000000e+03 >=   3.598000000e+03   2.9% (370; 390)
+  3646: mip =   3.706000000e+03 >=   3.598000000e+03   2.9% (374; 390)
+  3650: mip =   3.706000000e+03 >=   3.598000000e+03   2.9% (378; 390)
+  3654: mip =   3.706000000e+03 >=   3.598000000e+03   2.9% (382; 390)
+  3658: mip =   3.706000000e+03 >=   3.598000000e+03   2.9% (386; 390)
+  3674: mip =   3.706000000e+03 >=   3.598000000e+03   2.9% (390; 390)
+  3691: mip =   3.706000000e+03 >=   3.600000000e+03   2.9% (392; 392)
+  3719: mip =   3.706000000e+03 >=   3.601000000e+03   2.8% (396; 392)
+  3734: mip =   3.706000000e+03 >=   3.601000000e+03   2.8% (397; 394)
+  3738: mip =   3.706000000e+03 >=   3.601000000e+03   2.8% (394; 400)
Time used: 1029.7 secs.  Memory used: 29.2 Mb.
+  3755: mip =   3.706000000e+03 >=   3.601000000e+03   2.8% (399; 400)
+  3767: mip =   3.706000000e+03 >=   3.601000000e+03   2.8% (403; 400)
+  3782: mip =   3.706000000e+03 >=   3.601000000e+03   2.8% (408; 400)
+  3811: mip =   3.706000000e+03 >=   3.601000000e+03   2.8% (414; 400)
+  3837: mip =   3.706000000e+03 >=   3.601000000e+03   2.8% (420; 400)
+  3848: mip =   3.706000000e+03 >=   3.601000000e+03   2.8% (425; 400)
+  3866: mip =   3.706000000e+03 >=   3.601000000e+03   2.8% (430; 400)
+  3882: mip =   3.706000000e+03 >=   3.601000000e+03   2.8% (437; 400)
+  3891: mip =   3.706000000e+03 >=   3.601000000e+03   2.8% (442; 400)
+  3914: mip =   3.706000000e+03 >=   3.601000000e+03   2.8% (449; 400)
+  3949: mip =   3.706000000e+03 >=   3.601000000e+03   2.8% (448; 405)
Time used: 1090.7 secs.  Memory used: 29.2 Mb.
+  3979: mip =   3.706000000e+03 >=   3.601000000e+03   2.8% (451; 406)
+  4002: mip =   3.706000000e+03 >=   3.603000000e+03   2.8% (448; 410)
+  4009: mip =   3.706000000e+03 >=   3.603000000e+03   2.8% (452; 411)
+  4018: mip =   3.706000000e+03 >=   3.603000000e+03   2.8% (457; 411)
+  4025: mip =   3.706000000e+03 >=   3.603000000e+03   2.8% (463; 411)
+  4034: mip =   3.706000000e+03 >=   3.603000000e+03   2.8% (468; 411)
+  4051: mip =   3.706000000e+03 >=   3.603000000e+03   2.8% (471; 413)
+  4069: mip =   3.706000000e+03 >=   3.603000000e+03   2.8% (467; 420)
+  4077: mip =   3.706000000e+03 >=   3.603000000e+03   2.8% (472; 420)
+  4109: mip =   3.706000000e+03 >=   3.603000000e+03   2.8% (478; 420)
+  4159: mip =   3.706000000e+03 >=   3.603000000e+03   2.8% (482; 420)
Time used: 1151.2 secs.  Memory used: 29.3 Mb.
+  4230: mip =   3.706000000e+03 >=   3.607000000e+03   2.7% (483; 423)
+  4244: >>>>>   3.693000000e+03 >=   3.607000000e+03   2.3% (484; 424)
+  4249: mip =   3.693000000e+03 >=   3.607000000e+03   2.3% (467; 445)
+  4278: mip =   3.693000000e+03 >=   3.607000000e+03   2.3% (472; 445)
+  4307: mip =   3.693000000e+03 >=   3.607000000e+03   2.3% (478; 445)
+  4321: mip =   3.693000000e+03 >=   3.607000000e+03   2.3% (482; 446)
+  4335: mip =   3.693000000e+03 >=   3.607000000e+03   2.3% (487; 446)
+  4358: mip =   3.693000000e+03 >=   3.607000000e+03   2.3% (492; 446)
+  4364: mip =   3.693000000e+03 >=   3.607000000e+03   2.3% (497; 446)
+  4371: mip =   3.693000000e+03 >=   3.607000000e+03   2.3% (498; 449)
+  4381: mip =   3.693000000e+03 >=   3.607000000e+03   2.3% (488; 459)
Time used: 1211.4 secs.  Memory used: 29.3 Mb.
+  4393: mip =   3.693000000e+03 >=   3.608000000e+03   2.3% (482; 466)
+  4470: mip =   3.693000000e+03 >=   3.612000000e+03   2.2% (479; 469)
+  4490: mip =   3.693000000e+03 >=   3.612000000e+03   2.2% (472; 478)
+  4493: mip =   3.693000000e+03 >=   3.612000000e+03   2.2% (462; 489)
+  4505: mip =   3.693000000e+03 >=   3.612000000e+03   2.2% (466; 489)
+  4531: mip =   3.693000000e+03 >=   3.612000000e+03   2.2% (469; 490)
+  4534: mip =   3.693000000e+03 >=   3.614000000e+03   2.1% (455; 504)
+  4539: mip =   3.693000000e+03 >=   3.614000000e+03   2.1% (458; 505)
+  4564: mip =   3.693000000e+03 >=   3.614000000e+03   2.1% (463; 505)
+  4605: mip =   3.693000000e+03 >=   3.618000000e+03   2.0% (456; 512)
+  4633: mip =   3.693000000e+03 >=   3.618000000e+03   2.0% (460; 513)
Time used: 1271.5 secs.  Memory used: 29.3 Mb.
+  4650: mip =   3.693000000e+03 >=   3.618000000e+03   2.0% (455; 520)
+  4655: mip =   3.693000000e+03 >=   3.618000000e+03   2.0% (447; 530)
+  4665: mip =   3.693000000e+03 >=   3.618000000e+03   2.0% (445; 534)
+  4667: mip =   3.693000000e+03 >=   3.618000000e+03   2.0% (436; 543)
+  4690: mip =   3.693000000e+03 >=   3.618000000e+03   2.0% (434; 547)
+  4721: mip =   3.693000000e+03 >=   3.618000000e+03   2.0% (436; 547)
+  4744: mip =   3.693000000e+03 >=   3.622000000e+03   1.9% (439; 548)
+  4752: mip =   3.693000000e+03 >=   3.622000000e+03   1.9% (443; 548)
+  4758: mip =   3.693000000e+03 >=   3.622000000e+03   1.9% (447; 548)
+  4784: mip =   3.693000000e+03 >=   3.622000000e+03   1.9% (448; 550)
+  4792: mip =   3.693000000e+03 >=   3.622000000e+03   1.9% (445; 557)
Time used: 1332.0 secs.  Memory used: 29.3 Mb.
+  4798: mip =   3.693000000e+03 >=   3.622000000e+03   1.9% (450; 557)
+  4810: mip =   3.693000000e+03 >=   3.622000000e+03   1.9% (455; 557)
+  4819: mip =   3.693000000e+03 >=   3.622000000e+03   1.9% (451; 564)
+  4827: mip =   3.693000000e+03 >=   3.622000000e+03   1.9% (456; 564)
+  4849: mip =   3.693000000e+03 >=   3.622000000e+03   1.9% (461; 564)
+  4859: mip =   3.693000000e+03 >=   3.622000000e+03   1.9% (464; 566)
+  4879: mip =   3.693000000e+03 >=   3.622000000e+03   1.9% (470; 566)
+  4896: mip =   3.693000000e+03 >=   3.622000000e+03   1.9% (475; 566)
+  4910: mip =   3.693000000e+03 >=   3.622000000e+03   1.9% (478; 566)
+  4921: mip =   3.693000000e+03 >=   3.622000000e+03   1.9% (478; 569)
+  4943: mip =   3.693000000e+03 >=   3.622000000e+03   1.9% (473; 575)
+  4953: mip =   3.693000000e+03 >=   3.622000000e+03   1.9% (471; 577)
Time used: 1392.3 secs.  Memory used: 29.3 Mb.
+  4964: mip =   3.693000000e+03 >=   3.622000000e+03   1.9% (474; 578)
+  4973: mip =   3.693000000e+03 >=   3.622000000e+03   1.9% (479; 578)
+  4992: mip =   3.693000000e+03 >=   3.623000000e+03   1.9% (478; 582)
+  5010: mip =   3.693000000e+03 >=   3.623000000e+03   1.9% (471; 590)
+  5039: mip =   3.693000000e+03 >=   3.623000000e+03   1.9% (475; 590)
+  5060: mip =   3.693000000e+03 >=   3.623000000e+03   1.9% (479; 590)
+  5072: mip =   3.693000000e+03 >=   3.623000000e+03   1.9% (483; 590)
+  5087: mip =   3.693000000e+03 >=   3.625000000e+03   1.8% (482; 593)
+  5098: mip =   3.693000000e+03 >=   3.625000000e+03   1.8% (483; 593)
+  5114: mip =   3.693000000e+03 >=   3.625000000e+03   1.8% (474; 602)
+  5139: mip =   3.693000000e+03 >=   3.626000000e+03   1.8% (470; 607)
Time used: 1453.2 secs.  Memory used: 29.3 Mb.
+  5158: mip =   3.693000000e+03 >=   3.626000000e+03   1.8% (470; 610)
+  5177: mip =   3.693000000e+03 >=   3.626000000e+03   1.8% (471; 611)
+  5189: mip =   3.693000000e+03 >=   3.626000000e+03   1.8% (474; 611)
+  5207: mip =   3.693000000e+03 >=   3.626000000e+03   1.8% (472; 614)
+  5218: mip =   3.693000000e+03 >=   3.626000000e+03   1.8% (474; 616)
+  5229: mip =   3.693000000e+03 >=   3.626000000e+03   1.8% (465; 625)
+  5237: mip =   3.693000000e+03 >=   3.626000000e+03   1.8% (459; 631)
+  5247: mip =   3.693000000e+03 >=   3.626000000e+03   1.8% (463; 631)
+  5272: mip =   3.693000000e+03 >=   3.626000000e+03   1.8% (467; 631)
+  5295: mip =   3.693000000e+03 >=   3.626000000e+03   1.8% (471; 631)
+  5309: mip =   3.693000000e+03 >=   3.626000000e+03   1.8% (473; 632)
Time used: 1513.7 secs.  Memory used: 29.3 Mb.
+  5361: mip =   3.693000000e+03 >=   3.630000000e+03   1.7% (472; 635)
+  5366: mip =   3.693000000e+03 >=   3.630000000e+03   1.7% (458; 650)
+  5380: mip =   3.693000000e+03 >=   3.630000000e+03   1.7% (455; 656)
+  5396: mip =   3.693000000e+03 >=   3.630000000e+03   1.7% (460; 656)
+  5408: mip =   3.693000000e+03 >=   3.630000000e+03   1.7% (465; 656)
+  5426: mip =   3.693000000e+03 >=   3.630000000e+03   1.7% (462; 661)
+  5434: mip =   3.693000000e+03 >=   3.630000000e+03   1.7% (455; 668)
+  5453: mip =   3.693000000e+03 >=   3.630000000e+03   1.7% (456; 670)
+  5485: mip =   3.693000000e+03 >=   3.630000000e+03   1.7% (461; 670)
+  5494: mip =   3.693000000e+03 >=   3.630000000e+03   1.7% (465; 670)
+  5498: mip =   3.693000000e+03 >=   3.630000000e+03   1.7% (469; 670)
Time used: 1573.7 secs.  Memory used: 29.3 Mb.
+  5515: mip =   3.693000000e+03 >=   3.630000000e+03   1.7% (473; 670)
+  5553: mip =   3.693000000e+03 >=   3.630000000e+03   1.7% (476; 671)
+  5569: mip =   3.693000000e+03 >=   3.630000000e+03   1.7% (481; 671)
+  5594: mip =   3.693000000e+03 >=   3.630000000e+03   1.7% (479; 675)
+  5621: mip =   3.693000000e+03 >=   3.632000000e+03   1.7% (474; 682)
+  5637: mip =   3.693000000e+03 >=   3.632000000e+03   1.7% (474; 686)
+  5662: mip =   3.693000000e+03 >=   3.632000000e+03   1.7% (480; 686)
+  5688: mip =   3.693000000e+03 >=   3.632000000e+03   1.7% (478; 689)
+  5714: mip =   3.693000000e+03 >=   3.632000000e+03   1.7% (471; 696)
+  5754: mip =   3.693000000e+03 >=   3.634000000e+03   1.6% (460; 707)
+  5763: mip =   3.693000000e+03 >=   3.634000000e+03   1.6% (447; 720)
Time used: 1633.9 secs.  Memory used: 29.3 Mb.
+  5790: mip =   3.693000000e+03 >=   3.634000000e+03   1.6% (450; 721)
+  5814: mip =   3.693000000e+03 >=   3.634000000e+03   1.6% (449; 723)
+  5831: mip =   3.693000000e+03 >=   3.635000000e+03   1.6% (440; 732)
+  5845: mip =   3.693000000e+03 >=   3.635000000e+03   1.6% (443; 732)
+  5860: mip =   3.693000000e+03 >=   3.635000000e+03   1.6% (439; 737)
+  5878: mip =   3.693000000e+03 >=   3.636000000e+03   1.5% (440; 739)
+  5890: mip =   3.693000000e+03 >=   3.636000000e+03   1.5% (441; 742)
+  5904: mip =   3.693000000e+03 >=   3.636000000e+03   1.5% (445; 743)
+  5910: mip =   3.693000000e+03 >=   3.636000000e+03   1.5% (442; 749)
+  5926: mip =   3.693000000e+03 >=   3.636000000e+03   1.5% (442; 751)
+  5935: mip =   3.693000000e+03 >=   3.636000000e+03   1.5% (445; 752)
Time used: 1695.2 secs.  Memory used: 29.3 Mb.
+  5940: mip =   3.693000000e+03 >=   3.636000000e+03   1.5% (449; 752)
+  5989: mip =   3.693000000e+03 >=   3.636000000e+03   1.5% (453; 752)
+  5999: mip =   3.693000000e+03 >=   3.636000000e+03   1.5% (457; 752)
+  6037: mip =   3.693000000e+03 >=   3.636000000e+03   1.5% (461; 752)
+  6077: mip =   3.693000000e+03 >=   3.640000000e+03   1.4% (458; 756)
+  6097: mip =   3.693000000e+03 >=   3.640000000e+03   1.4% (457; 765)
+  6111: mip =   3.693000000e+03 >=   3.640000000e+03   1.4% (454; 771)
+  6128: mip =   3.693000000e+03 >=   3.640000000e+03   1.4% (459; 771)
+  6136: mip =   3.693000000e+03 >=   3.640000000e+03   1.4% (460; 774)
+  6151: mip =   3.693000000e+03 >=   3.640000000e+03   1.4% (459; 779)
+  6157: mip =   3.693000000e+03 >=   3.640000000e+03   1.4% (452; 787)
Time used: 1756.1 secs.  Memory used: 29.3 Mb.
+  6171: mip =   3.693000000e+03 >=   3.640000000e+03   1.4% (457; 787)
+  6184: mip =   3.693000000e+03 >=   3.640000000e+03   1.4% (460; 787)
+  6216: mip =   3.693000000e+03 >=   3.640000000e+03   1.4% (455; 792)
+  6233: mip =   3.693000000e+03 >=   3.640000000e+03   1.4% (455; 794)
+  6245: mip =   3.693000000e+03 >=   3.640000000e+03   1.4% (459; 794)
+  6266: mip =   3.693000000e+03 >=   3.640000000e+03   1.4% (462; 794)
+  6276: mip =   3.693000000e+03 >=   3.644000000e+03   1.3% (459; 799)
+  6293: mip =   3.693000000e+03 >=   3.644000000e+03   1.3% (455; 806)
+  6301: mip =   3.693000000e+03 >=   3.644000000e+03   1.3% (450; 814)
+  6318: mip =   3.693000000e+03 >=   3.644000000e+03   1.3% (455; 814)
+  6336: mip =   3.693000000e+03 >=   3.644000000e+03   1.3% (460; 814)
Time used: 1817.2 secs.  Memory used: 29.3 Mb.
+  6347: mip =   3.693000000e+03 >=   3.644000000e+03   1.3% (465; 814)
+  6366: mip =   3.693000000e+03 >=   3.644000000e+03   1.3% (469; 814)
+  6374: mip =   3.693000000e+03 >=   3.644000000e+03   1.3% (471; 814)
+  6390: mip =   3.693000000e+03 >=   3.644000000e+03   1.3% (468; 817)
+  6410: mip =   3.693000000e+03 >=   3.644000000e+03   1.3% (464; 823)
+  6426: mip =   3.693000000e+03 >=   3.644000000e+03   1.3% (467; 823)
+  6430: mip =   3.693000000e+03 >=   3.644000000e+03   1.3% (469; 824)
+  6448: mip =   3.693000000e+03 >=   3.644000000e+03   1.3% (461; 833)
+  6469: mip =   3.693000000e+03 >=   3.644000000e+03   1.3% (461; 837)
+  6488: mip =   3.693000000e+03 >=   3.644000000e+03   1.3% (466; 837)
+  6514: mip =   3.693000000e+03 >=   3.644000000e+03   1.3% (460; 844)
Time used: 1878.0 secs.  Memory used: 29.3 Mb.
+  6538: mip =   3.693000000e+03 >=   3.644000000e+03   1.3% (464; 844)
+  6557: mip =   3.693000000e+03 >=   3.644000000e+03   1.3% (468; 844)
+  6572: mip =   3.693000000e+03 >=   3.644000000e+03   1.3% (472; 844)
+  6610: mip =   3.693000000e+03 >=   3.644000000e+03   1.3% (473; 846)
+  6610: mip =   3.693000000e+03 >=   3.646000000e+03   1.3% (457; 862)
+  6621: mip =   3.693000000e+03 >=   3.646000000e+03   1.3% (453; 869)
+  6641: mip =   3.693000000e+03 >=   3.646000000e+03   1.3% (453; 872)
+  6650: mip =   3.693000000e+03 >=   3.646000000e+03   1.3% (456; 873)
+  6665: mip =   3.693000000e+03 >=   3.646000000e+03   1.3% (461; 873)
+  6679: mip =   3.693000000e+03 >=   3.646000000e+03   1.3% (465; 873)
+  6731: mip =   3.693000000e+03 >=   3.650000000e+03   1.2% (457; 881)
Time used: 1938.0 secs.  Memory used: 29.3 Mb.
+  6731: mip =   3.693000000e+03 >=   3.650000000e+03   1.2% (437; 904)
+  6732: mip =   3.693000000e+03 >=   3.650000000e+03   1.2% (423; 920)
+  6746: mip =   3.693000000e+03 >=   3.650000000e+03   1.2% (428; 920)
+  6766: mip =   3.693000000e+03 >=   3.650000000e+03   1.2% (432; 920)
+  6785: mip =   3.693000000e+03 >=   3.650000000e+03   1.2% (430; 926)
+  6800: mip =   3.693000000e+03 >=   3.650000000e+03   1.2% (435; 926)
+  6819: mip =   3.693000000e+03 >=   3.650000000e+03   1.2% (440; 926)
+  6837: mip =   3.693000000e+03 >=   3.650000000e+03   1.2% (445; 926)
+  6845: mip =   3.693000000e+03 >=   3.650000000e+03   1.2% (444; 931)
+  6874: mip =   3.693000000e+03 >=   3.650000000e+03   1.2% (445; 934)
+  6889: mip =   3.693000000e+03 >=   3.650000000e+03   1.2% (438; 942)
Time used: 1999.0 secs.  Memory used: 29.3 Mb.
+  6907: mip =   3.693000000e+03 >=   3.650000000e+03   1.2% (432; 949)
+  6922: mip =   3.693000000e+03 >=   3.650000000e+03   1.2% (425; 957)
+  6941: mip =   3.693000000e+03 >=   3.650000000e+03   1.2% (428; 958)
+  6949: mip =   3.693000000e+03 >=   3.651000000e+03   1.1% (418; 969)
+  6958: mip =   3.693000000e+03 >=   3.651000000e+03   1.1% (413; 977)
+  6993: mip =   3.693000000e+03 >=   3.651000000e+03   1.1% (418; 977)
+  7012: mip =   3.693000000e+03 >=   3.651000000e+03   1.1% (420; 979)
+  7015: mip =   3.693000000e+03 >=   3.655000000e+03   1.0% (407; 993)
+  7027: mip =   3.693000000e+03 >=   3.655000000e+03   1.0% (408; 996)
+  7041: mip =   3.693000000e+03 >=   3.655000000e+03   1.0% (412; 996)
+  7051: mip =   3.693000000e+03 >=   3.655000000e+03   1.0% (409; 1001)
+  7063: mip =   3.693000000e+03 >=   3.655000000e+03   1.0% (413; 1001)
Time used: 2059.7 secs.  Memory used: 29.3 Mb.
+  7082: mip =   3.693000000e+03 >=   3.655000000e+03   1.0% (406; 1008)
+  7098: mip =   3.693000000e+03 >=   3.655000000e+03   1.0% (395; 1019)
+  7109: mip =   3.693000000e+03 >=   3.655000000e+03   1.0% (390; 1025)
+  7120: mip =   3.693000000e+03 >=   3.655000000e+03   1.0% (388; 1029)
+  7137: mip =   3.693000000e+03 >=   3.655000000e+03   1.0% (385; 1034)
+  7141: mip =   3.693000000e+03 >=   3.657000000e+03   1.0% (376; 1045)
+  7149: mip =   3.693000000e+03 >=   3.657000000e+03   1.0% (381; 1045)
+  7160: mip =   3.693000000e+03 >=   3.657000000e+03   1.0% (384; 1045)
+  7171: mip =   3.693000000e+03 >=   3.657000000e+03   1.0% (372; 1058)
+  7173: mip =   3.693000000e+03 >=   3.657000000e+03   1.0% (362; 1069)
+  7206: mip =   3.693000000e+03 >=   3.657000000e+03   1.0% (361; 1073)
Time used: 2119.9 secs.  Memory used: 29.3 Mb.
+  7217: mip =   3.693000000e+03 >=   3.657000000e+03   1.0% (365; 1073)
+  7239: mip =   3.693000000e+03 >=   3.657000000e+03   1.0% (370; 1073)
+  7252: mip =   3.693000000e+03 >=   3.657000000e+03   1.0% (367; 1078)
+  7272: mip =   3.693000000e+03 >=   3.661000000e+03   0.9% (366; 1082)
+  7272: >>>>>   3.682000000e+03 >=   3.661000000e+03   0.6% (364; 1084)
+  7288: mip =   3.682000000e+03 >=   3.661000000e+03   0.6% (275; 1237)
+  7302: mip =   3.682000000e+03 >=   3.661000000e+03   0.6% (274; 1242)
+  7324: mip =   3.682000000e+03 >=   3.661000000e+03   0.6% (275; 1245)
+  7339: mip =   3.682000000e+03 >=   3.661000000e+03   0.6% (270; 1250)
+  7357: mip =   3.682000000e+03 >=   3.661000000e+03   0.6% (271; 1252)
+  7378: mip =   3.682000000e+03 >=   3.661000000e+03   0.6% (259; 1264)
+  7384: mip =   3.682000000e+03 >=   3.661000000e+03   0.6% (249; 1275)
Time used: 2180.1 secs.  Memory used: 29.3 Mb.
+  7390: mip =   3.682000000e+03 >=   3.661000000e+03   0.6% (252; 1276)
+  7401: mip =   3.682000000e+03 >=   3.661000000e+03   0.6% (256; 1276)
+  7408: mip =   3.682000000e+03 >=   3.663000000e+03   0.5% (243; 1293)
+  7416: mip =   3.682000000e+03 >=   3.663000000e+03   0.5% (241; 1302)
+  7423: mip =   3.682000000e+03 >=   3.663000000e+03   0.5% (238; 1308)
+  7435: mip =   3.682000000e+03 >=   3.663000000e+03   0.5% (228; 1326)
+  7448: mip =   3.682000000e+03 >=   3.667000000e+03   0.4% (215; 1360)
+  7448: mip =   3.682000000e+03 >=   3.667000000e+03   0.4% (192; 1399)
+  7454: mip =   3.682000000e+03 >=   3.667000000e+03   0.4% (178; 1417)
+  7464: mip =   3.682000000e+03 >=   3.667000000e+03   0.4% (169; 1433)
+  7478: mip =   3.682000000e+03 >=   3.667000000e+03   0.4% (157; 1462)
Time used: 2240.2 secs.  Memory used: 29.3 Mb.
+  7480: mip =   3.682000000e+03 >=   3.667000000e+03   0.4% (150; 1499)
+  7503: mip =   3.682000000e+03 >=   3.667000000e+03   0.4% (140; 1509)
+  7541: mip =   3.682000000e+03 >=   3.671000000e+03   0.3% (137; 1518)
+  7547: mip =   3.682000000e+03 >=   3.671000000e+03   0.3% (119; 1543)
+  7547: mip =   3.682000000e+03 >=   3.671000000e+03   0.3% (101; 1569)
+  7548: mip =   3.682000000e+03 >=   3.671000000e+03   0.3% (88; 1594)
+  7560: mip =   3.682000000e+03 >=   3.671000000e+03   0.3% (83; 1603)
+  7571: mip =   3.682000000e+03 >=   3.675000000e+03   0.2% (75; 1626)
+  7577: mip =   3.682000000e+03 >=   3.675000000e+03   0.2% (58; 1727)
+  7577: mip =   3.682000000e+03 >=   3.675000000e+03   0.2% (41; 1930)
+  7577: mip =   3.682000000e+03 >=   3.679000000e+03 < 0.1% (26; 2062)
Time used: 2300.4 secs.  Memory used: 29.3 Mb.
+  7579: mip =   3.682000000e+03 >=   3.679000000e+03 < 0.1% (7; 2545)
+  7582: mip =   3.682000000e+03 >=     tree is empty   0.0% (0; 2805)
INTEGER OPTIMAL SOLUTION FOUND
coût total = 3682.000000
Les tournées suivantes sont choisies :
19, 16, 12, 9, 
Pour un coût de 520
5, 18, 8, 
Pour un coût de 418
17, 10, 14, 3, 11, 
Pour un coût de 1210
4, 15, 2, 13, 1, 6, 7, 
Pour un coût de 1534
Temps : 727.834000
